DIMENSION: 9
EDGE_WEIGHT_TYPE: EXPLICIT
EDGE_WEIGHT_FORMAT: FULL_MATRIX
EDGE_WEIGHT_SECTION:
32767 32767 32767 77 32767 32767 79 46 32767 
32767 32767 32767 76 32767 15 32767 44 71 
32767 32767 32767 30 40 32767 32767 32767 92 
77 76 30 32767 82 32767 32767 32767 32767 
32767 32767 40 82 32767 32767 32767 32767 53 
32767 15 32767 32767 32767 32767 32767 80 32767 
79 32767 32767 32767 32767 32767 32767 32767 64 
46 44 32767 32767 32767 80 32767 32767 32767 
32767 71 92 32767 53 32767 64 32767 32767 
EOF